32	10
20	17	15	12	15	16	18	18	16	14
0	0	0	0	0	0	0	0	0	0	0	3	2	5	16
1	0	0	0	0	2	0	0	0	1	0	2	3	13
2	0	0	0	0	4	0	2	0	0	0	2	4	31
1	0	1	0	1	0	0	0	0	0	0	2	6	17
5	1	0	0	0	1	0	0	0	0	0	2	7	31
1	7	0	3	0	0	0	0	0	0	0	1	7
4	0	0	0	0	0	1	0	4	0	0	3	8	14	30
4	0	0	1	0	0	0	0	0	0	6	1	9
3	0	0	0	0	0	4	1	0	0	0	3	10	15	24
7	0	0	0	0	0	0	0	8	3	0	1	11
2	0	0	0	6	0	0	0	0	0	1	2	12	29
5	1	5	0	0	0	0	0	0	0	0	3	18	26	28
8	0	0	0	0	7	0	1	0	0	0	1	14
8	0	0	0	2	0	0	0	5	0	0	3	19	24	26
3	0	0	0	0	0	8	0	8	0	0	2	20	22
10	0	9	0	0	0	0	8	0	0	0	3	19	26	27
8	0	0	8	0	0	5	0	0	0	0	3	22	28	30
4	0	0	6	0	1	0	0	0	0	0	2	19	27
3	0	0	0	0	0	0	0	1	1	0	1	22
3	0	0	0	6	0	0	0	0	0	3	1	21
1	0	0	0	0	0	0	0	1	7	0	2	26	28
10	0	1	0	0	0	5	0	0	0	0	1	23
9	11	0	3	0	0	0	0	0	0	0	1	25
3	0	0	0	0	8	0	7	0	0	0	1	27
10	0	0	0	0	0	0	8	0	0	9	1	32
3	0	0	0	0	0	1	0	0	0	1	1	32
3	6	0	2	0	0	0	0	0	0	0	1	32
9	0	6	0	0	0	0	0	0	0	1	1	32
6	0	0	0	2	0	0	0	0	7	0	1	32
4	0	4	0	0	0	0	0	0	5	0	1	32
3	4	0	0	1	0	0	0	0	0	0	1	32
0	0	0	0	0	0	0	0	0	0	0	0
